data;


param d:= 100;
param r:=5;
param p:=0.760000;
param M:=1000;
param U:=
         1         1       -9.735627e-01
         2         1        4.122013e-01
         3         1       -8.298724e-01
         4         1        1.631879e+00
         5         1       -2.683015e-01
         6         1        3.857436e-01
         7         1        1.002939e+00
         8         1        1.867905e+00
         9         1        1.535470e+00
        10         1        4.764096e-02
        11         1       -5.646430e-01
        12         1        1.071449e+00
        13         1       -1.730635e+00
        14         1       -1.012696e+00
        15         1       -1.105530e+00
        16         1       -2.172440e-01
        17         1        1.977846e-01
        18         1       -3.577456e-01
        19         1        2.655130e+00
        20         1       -6.490328e-01
        21         1       -3.905664e-01
        22         1        2.205635e-01
        23         1       -3.399829e-01
        24         1        6.662898e-01
        25         1       -2.183658e+00
        26         1        2.216997e+00
        27         1       -8.990620e-01
        28         1       -4.052496e-02
        29         1        9.725078e-02
        30         1       -4.676205e-01
        31         1       -1.138271e+00
        32         1       -5.930949e-01
        33         1       -9.997440e-01
        34         1        4.960775e-01
        35         1       -9.922446e-01
        36         1        9.872398e-01
        37         1       -1.805374e+00
        38         1        1.381397e+00
        39         1        1.253031e+00
        40         1        1.426968e+00
        41         1       -2.936854e-02
        42         1        2.591415e-02
        43         1       -2.644550e-01
        44         1        2.216624e+00
        45         1        4.011343e-01
        46         1        5.709334e-01
        47         1       -1.231993e+00
        48         1        6.506661e-01
        49         1       -7.793706e-01
        50         1        1.094680e-01
        51         1       -3.006644e-01
        52         1        4.024067e-01
        53         1       -1.098814e+00
        54         1       -1.545946e+00
        55         1        3.662105e-01
        56         1        1.570264e+00
        57         1        2.225031e-01
        58         1        1.616153e+00
        59         1       -6.427281e-01
        60         1        8.665936e-01
        61         1       -1.059716e+00
        62         1        1.463130e+00
        63         1       -1.892189e+00
        64         1        3.641060e-01
        65         1        4.352433e-01
        66         1       -2.352303e-01
        67         1        3.263082e-01
        68         1        1.674065e+00
        69         1        1.984200e+00
        70         1       -4.205569e-02
        71         1        1.010618e+00
        72         1       -1.101714e+00
        73         1       -9.998481e-01
        74         1        1.249732e+00
        75         1        6.665140e-01
        76         1        4.127477e-01
        77         1        5.632434e-01
        78         1       -4.146641e-01
        79         1        1.541375e+00
        80         1       -1.460064e+00
        81         1       -9.145375e-01
        82         1       -2.652591e-01
        83         1       -5.560421e-01
        84         1        6.630271e-01
        85         1        4.750174e-01
        86         1       -1.689186e+00
        87         1       -2.044241e-01
        88         1       -2.487255e-01
        89         1       -1.352990e+00
        90         1        5.285660e-01
        91         1        9.628063e-01
        92         1       -1.716245e-01
        93         1       -1.046466e+00
        94         1       -1.608709e-01
        95         1        6.138541e-01
        96         1       -1.008816e+00
        97         1        3.078099e-01
        98         1       -7.176097e-02
        99         1       -2.141376e-01
       100         1       -6.492735e-01
         1         2        7.979430e-01
         2         2       -5.860358e-01
         3         2       -1.562939e+00
         4         2        6.507326e-01
         5         2       -4.459700e-01
         6         2       -1.734754e+00
         7         2        1.909434e+00
         8         2       -6.671014e-01
         9         2        6.474082e-01
        10         2        1.200478e-01
        11         2       -1.502203e+00
        12         2        9.899867e-01
        13         2        3.047872e-01
        14         2       -2.070370e-01
        15         2        6.284011e-01
        16         2        7.029296e-01
        17         2        3.783441e-02
        18         2       -1.314088e+00
        19         2        5.501280e-01
        20         2       -3.837215e-01
        21         2       -1.005692e+00
        22         2        9.453057e-02
        23         2        1.671118e+00
        24         2        1.516607e+00
        25         2        1.293345e+00
        26         2       -6.385169e-01
        27         2       -9.770826e-01
        28         2        1.498786e+00
        29         2       -1.505010e+00
        30         2       -1.366013e+00
        31         2       -1.046549e+00
        32         2        3.724602e-01
        33         2       -1.942126e+00
        34         2       -1.503050e+00
        35         2       -1.868430e-01
        36         2        5.300784e-01
        37         2       -6.542701e-01
        38         2       -3.895911e-01
        39         2       -1.620634e+00
        40         2       -3.737704e-01
        41         2       -4.259602e-01
        42         2        7.219432e-01
        43         2       -8.302303e-01
        44         2        2.372459e-01
        45         2        2.993312e+00
        46         2       -7.337822e-01
        47         2       -2.015925e+00
        48         2       -2.476857e-01
        49         2        3.986824e-01
        50         2        1.324722e+00
        51         2        3.505675e-01
        52         2       -1.580640e+00
        53         2       -5.715927e-01
        54         2       -6.676740e-02
        55         2        2.628905e+00
        56         2        6.930458e-01
        57         2        2.301836e-02
        58         2       -6.577971e-01
        59         2       -4.659072e-02
        60         2        1.150086e+00
        61         2        3.104345e-01
        62         2       -3.394834e-01
        63         2        8.252678e-01
        64         2        5.086853e-01
        65         2       -1.169190e+00
        66         2        1.913594e-02
        67         2       -1.007799e-01
        68         2       -5.950959e-01
        69         2        9.179531e-01
        70         2       -1.359777e+00
        71         2       -3.539087e-01
        72         2       -4.131686e-01
        73         2       -8.189670e-01
        74         2        1.698006e+00
        75         2        3.525135e-01
        76         2        5.027100e-01
        77         2       -1.668543e-01
        78         2       -3.244178e-01
        79         2        2.716524e+00
        80         2        1.393493e+00
        81         2       -3.674149e-01
        82         2       -1.913661e+00
        83         2       -1.155729e-02
        84         2       -2.495880e-01
        85         2       -1.268531e-01
        86         2        7.341381e-01
        87         2       -4.253623e-01
        88         2       -2.912008e-01
        89         2       -2.202274e+00
        90         2       -1.387567e-01
        91         2       -1.521146e+00
        92         2        1.614836e-01
        93         2        1.307319e+00
        94         2        9.116586e-01
        95         2        5.380582e-02
        96         2       -4.004337e-01
        97         2       -5.316757e-01
        98         2        2.057232e-01
        99         2        7.271451e-01
       100         2       -2.763903e+00
         1         3        4.981095e-01
         2         3       -1.405363e-01
         3         3        8.651101e-01
         4         3        8.830689e-01
         5         3       -9.112104e-01
         6         3        1.070347e+00
         7         3       -4.264168e-01
         8         3        6.393806e-01
         9         3       -1.630311e-01
        10         3       -1.433112e+00
        11         3        7.956451e-01
        12         3       -1.289161e+00
        13         3        2.474372e-01
        14         3        2.590396e-01
        15         3        3.559111e-02
        16         3        2.531707e-01
        17         3       -1.307736e-01
        18         3       -6.353147e-01
        19         3        4.633097e-02
        20         3       -6.641832e-02
        21         3        1.139207e+00
        22         3       -5.816909e-02
        23         3        4.112410e-01
        24         3       -5.470423e-01
        25         3        8.285604e-01
        26         3        1.383666e+00
        27         3        2.558438e-01
        28         3        5.767281e-02
        29         3        6.460367e-01
        30         3        1.257434e+00
        31         3        7.844037e-01
        32         3        1.052049e+00
        33         3        1.832761e-01
        34         3       -2.056683e+00
        35         3        9.990649e-01
        36         3        5.135938e-01
        37         3       -4.027422e-01
        38         3       -2.029502e-01
        39         3        3.965511e-01
        40         3       -3.022812e-01
        41         3        5.620063e-01
        42         3        8.057563e-02
        43         3        2.523289e-01
        44         3        5.463302e-01
        45         3        2.874061e-01
        46         3       -1.200336e-01
        47         3       -6.257745e-01
        48         3       -4.454166e-03
        49         3       -1.055604e-02
        50         3        4.321317e-01
        51         3        1.115597e+00
        52         3       -1.277078e+00
        53         3       -4.658758e-01
        54         3        5.182819e-01
        55         3        1.526503e+00
        56         3       -8.166574e-01
        57         3        1.960778e-01
        58         3       -1.643718e+00
        59         3       -5.614067e-01
        60         3       -3.815158e-01
        61         3       -5.498617e-02
        62         3        7.304268e-01
        63         3        3.539304e-01
        64         3        1.205573e+00
        65         3        7.118189e-01
        66         3       -1.551564e+00
        67         3       -1.810418e+00
        68         3        1.103815e+00
        69         3        6.173771e-01
        70         3       -2.192575e-01
        71         3       -2.952191e-01
        72         3       -5.024710e-01
        73         3        4.255474e-01
        74         3       -2.155180e+00
        75         3       -1.779434e+00
        76         3        1.549858e+00
        77         3       -8.420634e-01
        78         3        9.037951e-02
        79         3        1.181868e+00
        80         3        1.476917e+00
        81         3       -4.628106e-02
        82         3       -7.267590e-02
        83         3       -1.792802e+00
        84         3        3.119417e-01
        85         3        6.711314e-01
        86         3       -1.019268e+00
        87         3       -3.555202e-01
        88         3       -5.844542e-01
        89         3        6.092807e-01
        90         3        1.375946e+00
        91         3       -5.398746e-01
        92         3       -1.627911e+00
        93         3       -2.131350e+00
        94         3        1.021025e+00
        95         3        2.073711e-01
        96         3       -2.003432e-01
        97         3        2.462912e-01
        98         3        3.518573e-01
        99         3        1.558479e+00
       100         3        1.049144e+00
         1         4        1.111192e+00
         2         4       -2.706490e+00
         3         4       -2.312058e-01
         4         4       -2.364489e-01
         5         4       -1.278188e+00
         6         4       -1.337597e+00
         7         4        1.004188e-01
         8         4       -8.726442e-01
         9         4       -4.940567e-01
        10         4        8.290259e-01
        11         4       -1.217418e+00
        12         4        1.089103e+00
        13         4        9.268314e-01
        14         4       -4.545314e-01
        15         4       -1.279804e+00
        16         4       -4.082693e-01
        17         4       -1.662986e+00
        18         4        1.407297e+00
        19         4        1.542975e+00
        20         4        7.838443e-01
        21         4       -1.976155e+00
        22         4       -3.537068e-02
        23         4       -1.330149e-01
        24         4       -3.122786e-01
        25         4        7.185039e-01
        26         4       -1.133905e-02
        27         4        1.586870e+00
        28         4       -2.637529e-01
        29         4       -2.363891e-01
        30         4        8.903123e-01
        31         4        5.511314e-01
        32         4        2.466916e+00
        33         4       -8.074204e-01
        34         4        5.551327e-01
        35         4        1.782578e+00
        36         4       -2.786360e-01
        37         4       -1.485958e+00
        38         4        6.371334e-02
        39         4        2.349776e-01
        40         4        1.384004e+00
        41         4       -7.468471e-01
        42         4        1.813690e+00
        43         4        1.788484e+00
        44         4       -7.779130e-01
        45         4        4.525051e-01
        46         4        8.065632e-01
        47         4       -1.368799e+00
        48         4        4.307855e-01
        49         4       -3.904651e-01
        50         4        1.187042e+00
        51         4        9.268691e-01
        52         4       -2.118479e-01
        53         4        2.017579e+00
        54         4        9.932494e-01
        55         4        1.549210e-03
        56         4       -2.094575e+00
        57         4        6.030536e-01
        58         4       -7.234936e-01
        59         4        1.866212e+00
        60         4       -4.330576e-02
        61         4        1.109975e+00
        62         4       -2.884144e-01
        63         4       -9.398968e-03
        64         4       -3.280489e-02
        65         4        3.098724e-01
        66         4       -1.416665e+00
        67         4        5.210635e-01
        68         4       -6.674540e-01
        69         4       -4.808258e-01
        70         4       -5.508893e-01
        71         4       -2.550296e+00
        72         4        1.500143e-01
        73         4        8.543796e-02
        74         4       -1.263912e+00
        75         4        3.701763e-01
        76         4        3.032928e-01
        77         4        1.117938e+00
        78         4       -1.327110e+00
        79         4       -2.965213e-01
        80         4        5.939426e-02
        81         4       -1.765099e+00
        82         4        3.903841e-01
        83         4        4.029933e-01
        84         4        1.498474e-01
        85         4        7.905099e-02
        86         4       -1.153132e+00
        87         4       -7.969972e-01
        88         4        1.349466e+00
        89         4       -7.858378e-02
        90         4        8.572922e-01
        91         4       -5.629411e-01
        92         4        6.590919e-01
        93         4        4.739543e-01
        94         4       -5.800474e-01
        95         4       -2.042174e+00
        96         4        6.564754e-01
        97         4        1.176954e+00
        98         4        1.021732e-01
        99         4        7.766974e-01
       100         4       -1.401880e-01
         1         5        4.990357e-01
         2         5        2.422465e-01
         3         5       -5.391291e-01
         4         5        4.655916e-01
         5         5       -1.145647e+00
         6         5        4.148171e-01
         7         5        1.397918e+00
         8         5        7.387804e-01
         9         5        1.336564e-01
        10         5       -4.790137e-01
        11         5       -1.600669e-01
        12         5        7.128155e-01
        13         5        9.906176e-01
        14         5       -1.117242e+00
        15         5       -7.152693e-01
        16         5        1.196065e+00
        17         5       -1.131598e+00
        18         5       -2.698889e+00
        19         5        7.312864e-02
        20         5       -1.994874e+00
        21         5       -3.003704e-01
        22         5        2.745933e-01
        23         5       -1.619310e-01
        24         5        4.163786e-02
        25         5       -7.718855e-01
        26         5        1.156581e+00
        27         5       -8.519586e-05
        28         5       -1.489672e+00
        29         5        9.942765e-03
        30         5        2.445880e+00
        31         5        1.217165e+00
        32         5        4.784768e-01
        33         5       -8.177580e-01
        34         5       -4.964491e-01
        35         5       -2.837002e-01
        36         5        4.365439e-01
        37         5        2.522241e-01
        38         5       -8.311688e-01
        39         5        1.409284e+00
        40         5        3.818724e-01
        41         5        1.552338e-01
        42         5        5.405362e-02
        43         5        9.168841e-01
        44         5       -8.841150e-01
        45         5       -7.563715e-01
        46         5        1.324123e+00
        47         5        8.690456e-01
        48         5       -1.227243e+00
        49         5        5.780566e-01
        50         5        1.816149e-01
        51         5        4.943386e-01
        52         5       -3.512549e-01
        53         5       -3.845491e-01
        54         5       -2.782325e-01
        55         5        1.281149e-01
        56         5       -1.732928e+00
        57         5        1.134119e+00
        58         5       -1.495458e+00
        59         5        1.274850e+00
        60         5        1.033646e+00
        61         5        1.459805e-01
        62         5        1.488106e+00
        63         5        3.900133e-01
        64         5       -1.166273e+00
        65         5       -4.504986e-01
        66         5       -2.281396e-01
        67         5        8.835477e-01
        68         5       -2.410415e-01
        69         5       -1.728931e+00
        70         5        5.860512e-01
        71         5        1.480857e+00
        72         5       -1.885824e-01
        73         5        6.292973e-01
        74         5       -3.179944e-01
        75         5        2.499332e-01
        76         5       -1.605035e+00
        77         5       -2.624378e+00
        78         5       -1.094114e+00
        79         5       -4.347605e-02
        80         5       -8.423557e-01
        81         5       -9.172423e-01
        82         5       -4.217476e-02
        83         5       -6.041340e-01
        84         5       -3.298757e-01
        85         5       -7.795068e-01
        86         5       -7.718949e-01
        87         5        7.427204e-01
        88         5        2.036172e+00
        89         5       -1.644437e+00
        90         5        1.143472e+00
        91         5        1.993910e+00
        92         5        2.838142e+00
        93         5        1.325415e+00
        94         5       -8.063451e-01
        95         5       -6.901972e-02
        96         5        3.334949e-03
        97         5       -7.529812e-02
        98         5        8.862677e-01
        99         5        5.959987e-01
       100         5       -3.413278e-01
;

param theta:=
    1       -5.465482e-01
    2        9.860592e-01
    3        1.466093e-01
    4        7.177555e-01
    5        9.904352e-01
;
param X_true:=
    1        2.684899e+00
    2       -2.526757e+00
    3       -1.660891e+00
    4        1.719895e-01
    5       -2.478717e+00
    6       -2.312931e+00
    7        2.728616e+00
    8       -1.478055e+00
    9       -4.472199e-01
   10        2.057438e-03
   11       -2.089619e+00
   12        1.688660e+00
   13        2.926928e+00
   14       -1.044929e+00
   15       -3.970769e-01
   16        1.739332e+00
   17       -2.403617e+00
   18       -2.856409e+00
   19        2.780819e-01
   20       -1.446364e+00
   21       -2.326296e+00
   22        2.114299e-01
   23        1.637393e+00
   24        8.672113e-01
   25        2.340535e+00
   26       -4.994126e-01
   27        7.038363e-01
   28       -1.564552e-01
   29       -1.603014e+00
   30        2.153744e+00
   31        1.305948e+00
   32        3.089954e+00
   33       -2.731007e+00
   34       -2.147402e+00
   35        1.502887e+00
   36        2.914494e-01
   37       -5.337637e-01
   38       -1.945792e+00
   39       -6.610831e-01
   40        1.777753e-01
   41       -7.054433e-01
   42        2.064486e+00
   43        1.553721e+00
   44       -2.332273e+00
   45        2.350322e+00
   46        8.371493e-01
   47       -1.526234e+00
   48       -1.506648e+00
   49        1.111144e+00
   50        2.341193e+00
   51        1.829259e+00
   52       -2.466540e+00
   53        1.035668e+00
   54        1.291908e+00
   55        2.743961e+00
   56       -3.516128e+00
   57        1.484706e+00
   58       -3.774288e+00
   59        2.825472e+00
   60        1.598604e+00
   61        1.819787e+00
   62        2.400441e-01
   63        2.279634e+00
   64       -6.988813e-01
   65       -1.508765e+00
   66       -1.322258e+00
   67        7.048228e-01
   68       -2.057593e+00
   69       -2.146584e+00
   70       -1.163903e+00
   71       -1.309017e+00
   72        4.180030e-02
   73        4.858964e-01
   74       -5.467337e-01
   75        2.367784e-01
   76       -8.748522e-01
   77       -2.393453e+00
   78       -2.116042e+00
   79        1.752546e+00
   80        1.597502e+00
   81       -2.043765e+00
   82       -1.514467e+00
   83       -2.781344e-01
   84       -7.821859e-01
   85       -9.993268e-01
   86       -9.497457e-02
   87       -1.956878e-01
   88        2.748632e+00
   89       -3.027672e+00
   90        1.524890e+00
   91       -5.329832e-01
   92        3.297510e+00
   93        3.201346e+00
   94       -7.989036e-02
   95       -1.784978e+00
   96        6.005610e-01
   97        1.139801e-01
   98        1.244528e+00
   99        2.211322e+00
  100       -2.655442e+00
;
param X:=
    1       -8.477208e-02
    2       -1.705330e-01
    3        1.298531e+00
    4       -1.603966e+00
    5        7.372328e-01
    6       -1.440791e+00
    7        1.435554e+00
    8       -1.478055e+00
    9       -4.472199e-01
   10        2.057438e-03
   11        4.510555e-01
   12       -2.621498e-01
   13        1.774954e-01
   14        1.551862e+00
   15       -1.072368e+00
   16       -5.105407e-01
   17        2.260878e+00
   18       -2.131580e+00
   19        2.688937e-01
   20        2.135997e+00
   21        1.088867e+00
   22        2.114299e-01
   23        1.637393e+00
   24        8.672113e-01
   25        2.340535e+00
   26        9.942727e-01
   27        5.600571e-01
   28        1.202339e+00
   29       -1.603014e+00
   30        9.103203e-01
   31        1.305948e+00
   32        3.308151e+00
   33       -3.389449e-02
   34       -2.147402e+00
   35        1.042659e-01
   36        5.848892e-02
   37       -9.715755e-01
   38       -4.316013e-01
   39       -3.790225e-02
   40       -9.741452e-01
   41        6.274229e-01
   42       -3.773758e-01
   43        1.553721e+00
   44       -4.760606e-01
   45        3.284228e-02
   46        2.062848e-01
   47       -1.447001e+00
   48       -7.561249e-01
   49       -1.415547e+00
   50        2.341193e+00
   51       -5.548951e-01
   52        9.680980e-02
   53        1.035668e+00
   54        1.291908e+00
   55       -8.002627e-01
   56       -3.516128e+00
   57       -4.976429e-01
   58        2.738421e-01
   59       -1.502490e+00
   60       -6.846365e-01
   61       -6.488937e-01
   62        2.400441e-01
   63        2.279634e+00
   64       -2.837347e-01
   65       -5.114712e-01
   66       -6.380236e-01
   67        7.048228e-01
   68       -2.057593e+00
   69       -2.146584e+00
   70        1.135902e-01
   71       -1.309017e+00
   72       -8.499199e-01
   73       -7.844280e-01
   74        1.194199e+00
   75       -1.291992e+00
   76       -1.040340e-01
   77       -2.456384e-01
   78        1.124705e-01
   79        5.181546e-01
   80       -4.825007e-01
   81       -7.610850e-01
   82       -7.998636e-01
   83       -1.253922e+00
   84        2.615646e-01
   85        1.067700e+00
   86        2.838729e-02
   87        1.077942e+00
   88        5.619414e-01
   89        6.512404e-01
   90       -2.568870e+00
   91        1.646128e+00
   92        3.297510e+00
   93        3.201346e+00
   94       -3.315043e-01
   95       -1.717417e+00
   96        6.005610e-01
   97        1.154851e+00
   98        2.274677e+00
   99        1.049418e+00
  100        6.617344e-01
;
param outliervec:=
    1    1
    2    1
    3    1
    4    1
    5    1
    6    1
    7    1
    8    0
    9    0
   10    0
   11    1
   12    1
   13    1
   14    1
   15    1
   16    1
   17    1
   18    1
   19    1
   20    1
   21    1
   22    0
   23    0
   24    0
   25    0
   26    1
   27    1
   28    1
   29    0
   30    1
   31    0
   32    1
   33    1
   34    0
   35    1
   36    1
   37    1
   38    1
   39    1
   40    1
   41    1
   42    1
   43    0
   44    1
   45    1
   46    1
   47    1
   48    1
   49    1
   50    0
   51    1
   52    1
   53    0
   54    0
   55    1
   56    0
   57    1
   58    1
   59    1
   60    1
   61    1
   62    0
   63    0
   64    1
   65    1
   66    1
   67    0
   68    0
   69    0
   70    1
   71    0
   72    1
   73    1
   74    1
   75    1
   76    1
   77    1
   78    1
   79    1
   80    1
   81    1
   82    1
   83    1
   84    1
   85    1
   86    1
   87    1
   88    1
   89    1
   90    1
   91    1
   92    0
   93    0
   94    1
   95    1
   96    0
   97    1
   98    1
   99    1
  100    1
;